n = 10; 

m= 10; 

									
											
38	5	52	11	42	5	11	12	30	58
4	15	4	53	19	35	32	10	18	25
60	19	23	54	55	60	11	53	41	37
31	19	20	27	13	11	4	18	3	12
17	30	33	33	21	20	19	25	15	18
23	21	37	38	30	17	27	33	4	11
28	31	9	37	27	18	12	6	7	1
2	2	3	6	3	15	37	15	22	35
38	28	34	12	12	34	28	16	8	29
60	19	23	54	55	60	11	53	41	37
 



	 












 
 


 

 
